p cnf 275 400
49 50 1 76 0
49 50 1 -76 0
-49 -50 1 77 0
-49 -50 1 -77 0
49 -50 -1 78 0
49 -50 -1 -78 0
-49 50 -1 79 0
-49 50 -1 -79 0
1 51 2 80 0
1 51 2 -80 0
-1 -51 2 81 0
-1 -51 2 -81 0
1 -51 -2 82 0
1 -51 -2 -82 0
-1 51 -2 83 0
-1 51 -2 -83 0
2 52 3 84 0
2 52 3 -84 0
-2 -52 3 85 0
-2 -52 3 -85 0
2 -52 -3 86 0
2 -52 -3 -86 0
-2 52 -3 87 0
-2 52 -3 -87 0
3 53 4 88 0
3 53 4 -88 0
-3 -53 4 89 0
-3 -53 4 -89 0
3 -53 -4 90 0
3 -53 -4 -90 0
-3 53 -4 91 0
-3 53 -4 -91 0
4 54 5 92 0
4 54 5 -92 0
-4 -54 5 93 0
-4 -54 5 -93 0
4 -54 -5 94 0
4 -54 -5 -94 0
-4 54 -5 95 0
-4 54 -5 -95 0
5 55 6 96 0
5 55 6 -96 0
-5 -55 6 97 0
-5 -55 6 -97 0
5 -55 -6 98 0
5 -55 -6 -98 0
-5 55 -6 99 0
-5 55 -6 -99 0
6 56 7 100 0
6 56 7 -100 0
-6 -56 7 101 0
-6 -56 7 -101 0
6 -56 -7 102 0
6 -56 -7 -102 0
-6 56 -7 103 0
-6 56 -7 -103 0
7 57 8 104 0
7 57 8 -104 0
-7 -57 8 105 0
-7 -57 8 -105 0
7 -57 -8 106 0
7 -57 -8 -106 0
-7 57 -8 107 0
-7 57 -8 -107 0
8 58 9 108 0
8 58 9 -108 0
-8 -58 9 109 0
-8 -58 9 -109 0
8 -58 -9 110 0
8 -58 -9 -110 0
-8 58 -9 111 0
-8 58 -9 -111 0
9 59 10 112 0
9 59 10 -112 0
-9 -59 10 113 0
-9 -59 10 -113 0
9 -59 -10 114 0
9 -59 -10 -114 0
-9 59 -10 115 0
-9 59 -10 -115 0
10 60 11 116 0
10 60 11 -116 0
-10 -60 11 117 0
-10 -60 11 -117 0
10 -60 -11 118 0
10 -60 -11 -118 0
-10 60 -11 119 0
-10 60 -11 -119 0
11 61 12 120 0
11 61 12 -120 0
-11 -61 12 121 0
-11 -61 12 -121 0
11 -61 -12 122 0
11 -61 -12 -122 0
-11 61 -12 123 0
-11 61 -12 -123 0
12 62 13 124 0
12 62 13 -124 0
-12 -62 13 125 0
-12 -62 13 -125 0
12 -62 -13 126 0
12 -62 -13 -126 0
-12 62 -13 127 0
-12 62 -13 -127 0
13 63 14 128 0
13 63 14 -128 0
-13 -63 14 129 0
-13 -63 14 -129 0
13 -63 -14 130 0
13 -63 -14 -130 0
-13 63 -14 131 0
-13 63 -14 -131 0
14 64 15 132 0
14 64 15 -132 0
-14 -64 15 133 0
-14 -64 15 -133 0
14 -64 -15 134 0
14 -64 -15 -134 0
-14 64 -15 135 0
-14 64 -15 -135 0
15 65 16 136 0
15 65 16 -136 0
-15 -65 16 137 0
-15 -65 16 -137 0
15 -65 -16 138 0
15 -65 -16 -138 0
-15 65 -16 139 0
-15 65 -16 -139 0
16 66 17 140 0
16 66 17 -140 0
-16 -66 17 141 0
-16 -66 17 -141 0
16 -66 -17 142 0
16 -66 -17 -142 0
-16 66 -17 143 0
-16 66 -17 -143 0
17 67 18 144 0
17 67 18 -144 0
-17 -67 18 145 0
-17 -67 18 -145 0
17 -67 -18 146 0
17 -67 -18 -146 0
-17 67 -18 147 0
-17 67 -18 -147 0
18 68 19 148 0
18 68 19 -148 0
-18 -68 19 149 0
-18 -68 19 -149 0
18 -68 -19 150 0
18 -68 -19 -150 0
-18 68 -19 151 0
-18 68 -19 -151 0
19 69 20 152 0
19 69 20 -152 0
-19 -69 20 153 0
-19 -69 20 -153 0
19 -69 -20 154 0
19 -69 -20 -154 0
-19 69 -20 155 0
-19 69 -20 -155 0
20 70 21 156 0
20 70 21 -156 0
-20 -70 21 157 0
-20 -70 21 -157 0
20 -70 -21 158 0
20 -70 -21 -158 0
-20 70 -21 159 0
-20 70 -21 -159 0
21 71 22 160 0
21 71 22 -160 0
-21 -71 22 161 0
-21 -71 22 -161 0
21 -71 -22 162 0
21 -71 -22 -162 0
-21 71 -22 163 0
-21 71 -22 -163 0
22 72 23 164 0
22 72 23 -164 0
-22 -72 23 165 0
-22 -72 23 -165 0
22 -72 -23 166 0
22 -72 -23 -166 0
-22 72 -23 167 0
-22 72 -23 -167 0
23 73 24 168 0
23 73 24 -168 0
-23 -73 24 169 0
-23 -73 24 -169 0
23 -73 -24 170 0
23 -73 -24 -170 0
-23 73 -24 171 0
-23 73 -24 -171 0
24 74 75 172 0
24 74 75 -172 0
-24 -74 75 173 0
-24 -74 75 -173 0
24 -74 -75 174 0
24 -74 -75 -174 0
-24 74 -75 175 0
-24 74 -75 -175 0
25 74 75 176 0
25 74 75 -176 0
-25 -74 75 177 0
-25 -74 75 -177 0
25 -74 -75 178 0
25 -74 -75 -178 0
-25 74 -75 179 0
-25 74 -75 -179 0
26 73 25 180 0
26 73 25 -180 0
-26 -73 25 181 0
-26 -73 25 -181 0
26 -73 -25 182 0
26 -73 -25 -182 0
-26 73 -25 183 0
-26 73 -25 -183 0
27 72 26 184 0
27 72 26 -184 0
-27 -72 26 185 0
-27 -72 26 -185 0
27 -72 -26 186 0
27 -72 -26 -186 0
-27 72 -26 187 0
-27 72 -26 -187 0
28 71 27 188 0
28 71 27 -188 0
-28 -71 27 189 0
-28 -71 27 -189 0
28 -71 -27 190 0
28 -71 -27 -190 0
-28 71 -27 191 0
-28 71 -27 -191 0
29 70 28 192 0
29 70 28 -192 0
-29 -70 28 193 0
-29 -70 28 -193 0
29 -70 -28 194 0
29 -70 -28 -194 0
-29 70 -28 195 0
-29 70 -28 -195 0
30 69 29 196 0
30 69 29 -196 0
-30 -69 29 197 0
-30 -69 29 -197 0
30 -69 -29 198 0
30 -69 -29 -198 0
-30 69 -29 199 0
-30 69 -29 -199 0
31 68 30 200 0
31 68 30 -200 0
-31 -68 30 201 0
-31 -68 30 -201 0
31 -68 -30 202 0
31 -68 -30 -202 0
-31 68 -30 203 0
-31 68 -30 -203 0
32 67 31 204 0
32 67 31 -204 0
-32 -67 31 205 0
-32 -67 31 -205 0
32 -67 -31 206 0
32 -67 -31 -206 0
-32 67 -31 207 0
-32 67 -31 -207 0
33 66 32 208 0
33 66 32 -208 0
-33 -66 32 209 0
-33 -66 32 -209 0
33 -66 -32 210 0
33 -66 -32 -210 0
-33 66 -32 211 0
-33 66 -32 -211 0
34 65 33 212 0
34 65 33 -212 0
-34 -65 33 213 0
-34 -65 33 -213 0
34 -65 -33 214 0
34 -65 -33 -214 0
-34 65 -33 215 0
-34 65 -33 -215 0
35 64 34 216 0
35 64 34 -216 0
-35 -64 34 217 0
-35 -64 34 -217 0
35 -64 -34 218 0
35 -64 -34 -218 0
-35 64 -34 219 0
-35 64 -34 -219 0
36 63 35 220 0
36 63 35 -220 0
-36 -63 35 221 0
-36 -63 35 -221 0
36 -63 -35 222 0
36 -63 -35 -222 0
-36 63 -35 223 0
-36 63 -35 -223 0
37 62 36 224 0
37 62 36 -224 0
-37 -62 36 225 0
-37 -62 36 -225 0
37 -62 -36 226 0
37 -62 -36 -226 0
-37 62 -36 227 0
-37 62 -36 -227 0
38 61 37 228 0
38 61 37 -228 0
-38 -61 37 229 0
-38 -61 37 -229 0
38 -61 -37 230 0
38 -61 -37 -230 0
-38 61 -37 231 0
-38 61 -37 -231 0
39 60 38 232 0
39 60 38 -232 0
-39 -60 38 233 0
-39 -60 38 -233 0
39 -60 -38 234 0
39 -60 -38 -234 0
-39 60 -38 235 0
-39 60 -38 -235 0
40 59 39 236 0
40 59 39 -236 0
-40 -59 39 237 0
-40 -59 39 -237 0
40 -59 -39 238 0
40 -59 -39 -238 0
-40 59 -39 239 0
-40 59 -39 -239 0
41 58 40 240 0
41 58 40 -240 0
-41 -58 40 241 0
-41 -58 40 -241 0
41 -58 -40 242 0
41 -58 -40 -242 0
-41 58 -40 243 0
-41 58 -40 -243 0
42 57 41 244 0
42 57 41 -244 0
-42 -57 41 245 0
-42 -57 41 -245 0
42 -57 -41 246 0
42 -57 -41 -246 0
-42 57 -41 247 0
-42 57 -41 -247 0
43 56 42 248 0
43 56 42 -248 0
-43 -56 42 249 0
-43 -56 42 -249 0
43 -56 -42 250 0
43 -56 -42 -250 0
-43 56 -42 251 0
-43 56 -42 -251 0
44 55 43 252 0
44 55 43 -252 0
-44 -55 43 253 0
-44 -55 43 -253 0
44 -55 -43 254 0
44 -55 -43 -254 0
-44 55 -43 255 0
-44 55 -43 -255 0
45 54 44 256 0
45 54 44 -256 0
-45 -54 44 257 0
-45 -54 44 -257 0
45 -54 -44 258 0
45 -54 -44 -258 0
-45 54 -44 259 0
-45 54 -44 -259 0
46 53 45 260 0
46 53 45 -260 0
-46 -53 45 261 0
-46 -53 45 -261 0
46 -53 -45 262 0
46 -53 -45 -262 0
-46 53 -45 263 0
-46 53 -45 -263 0
47 52 46 264 0
47 52 46 -264 0
-47 -52 46 265 0
-47 -52 46 -265 0
47 -52 -46 266 0
47 -52 -46 -266 0
-47 52 -46 267 0
-47 52 -46 -267 0
48 51 47 268 0
48 51 47 -268 0
-48 -51 47 269 0
-48 -51 47 -269 0
48 -51 -47 270 0
48 -51 -47 -270 0
-48 51 -47 271 0
-48 51 -47 -271 0
49 50 -48 272 0
49 50 -48 -272 0
-49 -50 -48 273 0
-49 -50 -48 -273 0
49 -50 48 274 0
49 -50 48 -274 0
-49 50 48 275 0
-49 50 48 -275 0
